cluster_editing/exact/simple_reductions/graphs/exact119.gr.metis
213 1826
7 15 20 100 115 125 137 151 168 180 193 195 201 212 
5 21 25 26 29 37 42 44 45 49 51 54 55 59 60 74 75 79 82 93 94 101 109 113 119 123 129 136 142 143 145 153 158 159 161 163 165 167 179 184 185 187 190 194 198 199 204 211 
7 9 15 20 30 36 46 70 100 103 115 125 137 151 152 168 175 180 193 195 201 212 213 
24 27 48 58 71 76 110 139 147 156 171 183 189 191 200 206 207 210 
2 21 25 26 29 37 42 44 45 49 51 54 55 59 60 74 75 79 82 93 94 101 109 113 119 123 129 136 142 143 145 153 158 159 161 163 165 167 179 184 185 187 190 194 198 199 204 211 

1 3 9 15 20 30 36 41 46 70 100 103 115 125 137 151 152 168 175 180 182 193 195 201 212 213 
12 149 
3 7 15 20 36 46 70 100 103 115 125 137 152 168 175 180 182 193 195 201 212 213 
160 

8 149 


1 3 7 9 20 30 36 41 46 70 100 103 115 125 137 151 152 168 175 180 182 193 195 201 212 213 
157 
68 95 154 
92 
90 192 
1 3 7 9 15 30 36 41 46 70 100 103 115 125 137 151 152 168 175 180 193 195 201 212 213 
2 5 25 26 29 33 37 42 44 45 49 50 51 54 55 59 60 74 75 79 82 93 94 101 109 111 113 119 123 129 136 142 143 144 145 153 158 159 161 163 165 167 179 184 185 187 190 194 198 199 204 
178 
77 91 135 
4 27 48 58 71 76 110 139 147 156 171 183 189 191 200 206 207 210 
2 5 21 26 29 33 37 42 44 45 49 51 54 55 59 60 74 75 79 82 93 94 101 109 111 113 119 123 129 136 142 143 144 145 153 158 159 161 163 165 167 179 184 185 187 190 194 199 204 
2 5 21 25 29 33 37 42 44 45 49 50 51 54 55 59 60 74 75 79 82 93 94 101 109 111 113 119 123 129 136 142 143 144 145 153 158 159 161 163 165 167 179 184 185 187 190 194 198 199 204 211 
4 24 48 58 71 76 110 139 147 156 171 183 189 191 200 206 207 210 

2 5 21 25 26 33 37 42 44 45 49 50 51 54 55 59 60 74 75 79 82 93 94 101 109 111 113 119 120 123 129 136 140 142 143 144 145 153 158 159 161 163 165 167 179 184 185 187 190 194 198 199 204 208 211 
3 7 15 20 36 41 46 70 100 115 125 137 151 152 168 175 180 193 195 212 213 
34 64 89 174 
87 88 164 
21 25 26 29 37 44 45 49 51 54 59 74 79 93 94 101 109 111 113 123 129 142 144 145 153 158 159 161 163 165 184 185 187 190 198 204 
31 64 89 174 
169 
3 7 9 15 20 30 41 46 70 100 103 115 125 137 151 152 168 175 180 193 195 201 212 213 
2 5 21 25 26 29 33 42 44 45 49 51 54 55 59 60 74 75 79 82 93 94 101 109 111 113 119 123 129 136 142 143 144 145 153 158 159 161 163 165 167 179 184 185 187 190 194 198 199 204 211 



7 15 20 30 36 100 103 115 125 137 151 152 170 175 180 193 195 203 212 213 
2 5 21 25 26 29 37 44 45 49 50 51 54 55 59 60 74 75 79 82 93 94 101 109 113 119 123 129 136 142 143 145 153 158 159 161 163 165 167 179 184 185 187 190 194 199 204 211 
102 
2 5 21 25 26 29 33 37 42 45 49 51 54 55 59 60 74 75 79 82 93 94 101 109 111 113 119 123 129 136 142 143 144 145 153 158 159 161 163 165 167 179 184 185 187 190 194 199 204 
2 5 21 25 26 29 33 37 42 44 49 51 54 55 59 60 74 79 82 93 94 101 109 111 113 119 123 129 136 142 143 144 145 153 158 159 161 163 165 167 179 184 185 187 190 194 198 199 204 
3 7 9 15 20 30 36 70 100 103 115 125 137 151 152 168 175 180 193 195 201 212 213 

4 24 27 58 71 76 110 139 147 156 171 183 189 191 200 206 207 210 
2 5 21 25 26 29 33 37 42 44 45 50 51 54 55 59 60 74 75 79 82 93 94 101 109 111 113 119 120 123 129 136 142 143 144 145 153 158 159 161 163 165 167 179 184 185 187 190 194 198 199 204 208 211 
21 26 29 42 49 51 59 74 82 94 109 120 123 129 145 153 159 161 163 165 190 208 
2 5 21 25 26 29 33 37 42 44 45 49 50 54 55 59 60 74 75 79 82 93 94 101 109 111 113 119 120 123 129 136 140 142 143 144 145 153 158 159 161 163 165 167 179 184 185 187 190 194 198 199 204 208 211 
65 78 112 

2 5 21 25 26 29 33 37 42 44 45 49 51 55 59 60 74 75 79 82 93 94 101 109 111 113 119 123 129 136 142 143 144 145 153 158 159 161 163 165 167 179 184 185 187 190 194 198 199 204 
2 5 21 25 26 29 37 42 44 45 49 51 54 59 60 74 75 79 82 93 94 101 109 111 113 119 123 129 136 142 143 144 145 153 158 159 161 163 165 167 179 184 185 187 190 194 198 199 204 211 
69 

4 24 27 48 71 76 110 139 147 156 171 183 189 191 200 206 207 210 
2 5 21 25 26 29 33 37 42 44 45 49 50 51 54 55 60 74 75 79 82 93 94 101 109 111 113 119 120 123 129 136 142 143 144 145 153 158 159 161 163 165 167 179 184 185 187 190 194 198 199 204 208 211 
2 5 21 25 26 29 37 42 44 45 49 51 54 55 59 74 75 79 82 93 94 101 109 119 123 129 136 142 143 145 153 158 159 161 163 165 167 184 185 190 194 199 204 211 



31 34 89 174 
52 78 80 112 


17 95 154 
56 
3 7 9 15 20 30 36 46 100 103 115 125 137 151 152 168 175 180 193 195 201 212 213 
4 24 27 48 58 76 110 139 147 156 171 183 189 191 200 206 207 210 
122 

2 5 21 25 26 29 33 37 42 44 45 49 50 51 54 55 59 60 75 79 82 93 94 101 109 111 113 119 123 129 136 142 143 144 145 153 158 159 161 163 165 167 179 184 185 187 190 194 198 199 204 208 211 
2 5 21 25 26 29 37 42 44 49 51 54 55 59 60 74 79 82 93 94 101 109 113 119 123 129 136 142 143 145 153 158 159 161 163 165 167 179 184 185 187 190 194 199 204 211 
4 24 27 48 58 71 110 139 147 156 171 183 189 191 200 206 207 210 
23 
52 65 80 112 
2 5 21 25 26 29 33 37 42 44 45 49 51 54 55 59 60 74 75 82 93 94 101 109 111 113 119 123 129 136 142 143 144 145 153 158 159 161 163 165 167 179 184 185 187 190 194 198 199 204 
65 78 112 

2 5 21 25 26 29 37 42 44 45 49 50 51 54 55 59 60 74 75 79 93 94 101 109 113 119 123 129 136 142 143 145 153 158 159 161 163 165 167 179 184 185 187 190 194 199 204 211 




32 88 164 
32 87 
31 34 64 174 
19 192 
23 135 
18 
2 5 21 25 26 29 33 37 42 44 45 49 51 54 55 59 60 74 75 79 82 94 101 109 111 113 119 123 129 136 142 143 144 145 153 158 159 161 163 165 167 179 184 185 187 190 194 198 199 204 
2 5 21 25 26 29 33 37 42 44 45 49 50 51 54 55 59 60 74 75 79 82 93 101 109 111 113 119 120 123 129 136 140 142 143 144 145 153 158 159 161 163 165 167 179 184 185 187 190 194 198 199 204 208 211 
17 68 154 



138 
1 3 7 9 15 20 30 36 41 46 70 103 115 125 137 151 152 168 175 180 182 193 195 201 212 213 
2 5 21 25 26 29 33 37 42 44 45 49 51 54 55 59 60 74 75 79 82 93 94 109 111 113 119 123 129 136 142 143 144 145 153 158 159 161 163 165 167 184 185 187 190 194 198 199 204 
43 
3 7 9 15 20 36 41 46 70 100 115 125 137 151 152 168 175 180 182 193 195 201 212 213 


114 


2 5 21 25 26 29 33 37 42 44 45 49 50 51 54 55 59 60 74 75 79 82 93 94 101 111 113 119 123 129 136 142 143 144 145 153 158 159 161 163 165 167 179 184 185 187 190 194 198 199 204 211 
4 24 27 48 58 71 76 139 147 156 171 183 189 191 200 206 207 210 
21 25 26 29 33 37 44 45 49 51 54 55 59 74 79 93 94 101 109 113 123 129 144 145 153 158 159 161 163 165 184 185 187 190 198 204 
52 65 78 80 
2 5 21 25 26 29 33 37 42 44 45 49 51 54 55 59 74 75 79 82 93 94 101 109 111 119 123 129 136 142 143 144 145 153 158 159 161 163 165 184 185 187 190 199 204 
106 
1 3 7 9 15 20 30 36 41 46 70 100 103 125 137 151 152 168 170 175 180 182 193 195 201 203 212 213 


177 
2 5 21 25 26 29 37 42 44 45 49 51 54 55 59 60 74 75 79 82 93 94 101 109 113 123 129 136 142 143 145 153 158 159 161 163 165 167 179 184 185 190 198 199 204 
29 49 50 51 59 94 145 190 208 

72 
2 5 21 25 26 29 33 37 42 44 45 49 50 51 54 55 59 60 74 75 79 82 93 94 101 109 111 113 119 129 136 142 143 144 145 153 158 159 161 163 165 167 179 184 185 187 190 194 198 199 204 211 
148 
1 3 7 9 15 20 30 36 41 46 70 100 103 115 137 151 152 168 175 180 182 193 195 201 212 213 



2 5 21 25 26 29 33 37 42 44 45 49 50 51 54 55 59 60 74 75 79 82 93 94 101 109 111 113 119 123 136 142 143 144 145 153 158 159 161 163 165 167 179 184 185 187 190 194 198 199 204 211 





23 91 
2 5 21 25 26 29 37 42 44 45 49 51 54 55 59 60 74 75 79 82 93 94 101 109 113 119 123 129 142 143 145 153 158 159 161 163 165 167 179 184 185 187 190 194 199 204 
1 3 7 9 15 20 30 36 41 46 70 100 103 115 125 151 152 168 175 180 182 193 195 201 212 213 
99 
4 24 27 48 58 71 76 110 147 156 171 183 189 191 200 206 207 210 
29 51 94 145 190 

2 5 21 25 26 29 33 37 42 44 45 49 51 54 55 59 60 74 75 79 82 93 94 101 109 113 119 123 129 136 143 145 153 158 159 161 163 165 167 179 184 185 190 198 199 204 
2 5 21 25 26 29 37 42 44 45 49 51 54 55 59 60 74 75 79 82 93 94 101 109 113 119 123 129 136 142 145 153 158 159 161 163 165 167 179 184 185 187 190 198 199 204 
21 25 26 29 33 37 44 45 49 51 54 55 59 74 79 93 94 101 109 111 113 123 129 145 153 158 159 161 163 165 184 185 187 190 198 204 
2 5 21 25 26 29 33 37 42 44 45 49 50 51 54 55 59 60 74 75 79 82 93 94 101 109 111 113 119 120 123 129 136 140 142 143 144 153 158 159 161 163 165 167 179 184 185 187 190 194 198 199 204 208 211 
192 
4 24 27 48 58 71 76 110 139 156 171 183 189 191 200 206 207 210 
124 
8 12 

1 3 7 15 20 30 36 41 46 70 100 103 115 125 137 152 168 175 180 193 195 201 212 213 
3 7 9 15 20 30 36 41 46 70 100 103 115 125 137 151 168 175 180 182 193 195 201 212 213 
2 5 21 25 26 29 33 37 42 44 45 49 50 51 54 55 59 60 74 75 79 82 93 94 101 109 111 113 119 123 129 136 142 143 144 145 158 159 161 163 165 167 179 184 185 187 190 194 198 199 204 211 
17 68 95 

4 24 27 48 58 71 76 110 139 147 171 183 189 191 200 206 207 210 
16 
2 5 21 25 26 29 33 37 42 44 45 49 51 54 55 59 60 74 75 79 82 93 94 101 109 111 113 119 123 129 136 142 143 144 145 153 159 161 163 165 167 179 184 185 187 190 194 199 204 
2 5 21 25 26 29 33 37 42 44 45 49 50 51 54 55 59 60 74 75 79 82 93 94 101 109 111 113 119 123 129 136 142 143 144 145 153 158 161 163 165 167 179 184 185 187 190 194 198 199 204 211 
10 172 
2 5 21 25 26 29 33 37 42 44 45 49 50 51 54 55 59 60 74 75 79 82 93 94 101 109 111 113 119 123 129 136 142 143 144 145 153 158 159 163 165 167 179 184 185 187 190 194 198 199 204 211 

2 5 21 25 26 29 33 37 42 44 45 49 50 51 54 55 59 60 74 75 79 82 93 94 101 109 111 113 119 123 129 136 142 143 144 145 153 158 159 161 165 167 179 184 185 187 190 194 198 199 204 211 
32 87 
2 5 21 25 26 29 33 37 42 44 45 49 50 51 54 55 59 60 74 75 79 82 93 94 101 109 111 113 119 123 129 136 142 143 144 145 153 158 159 161 163 167 179 184 185 187 190 194 198 199 204 211 

2 5 21 25 26 29 37 42 44 45 49 51 54 55 59 60 74 75 79 82 93 94 101 109 119 123 129 136 142 143 145 153 158 159 161 163 165 179 184 185 187 190 194 199 204 
1 3 7 9 15 20 30 36 46 70 100 103 115 125 137 151 152 175 180 182 193 195 201 203 212 213 
35 
41 115 175 
4 24 27 48 58 71 76 110 139 147 156 183 189 191 200 206 207 210 
160 

31 34 64 89 
3 7 9 15 20 30 36 41 46 70 100 103 115 125 137 151 152 168 170 180 182 193 195 201 212 213 

118 
22 
2 5 21 25 26 29 37 42 44 45 49 51 54 55 59 74 75 79 82 93 94 109 119 123 129 136 142 143 145 153 158 159 161 163 165 167 184 190 199 204 
1 3 7 9 15 20 30 36 41 46 70 100 103 115 125 137 151 152 168 175 182 193 195 201 212 213 

7 9 15 100 103 115 125 137 152 168 175 180 193 195 201 
4 24 27 48 58 71 76 110 139 147 156 171 189 191 200 206 207 210 
2 5 21 25 26 29 33 37 42 44 45 49 51 54 55 59 60 74 75 79 82 93 94 101 109 111 113 119 123 129 136 142 143 144 145 153 158 159 161 163 165 167 179 185 187 190 194 198 199 204 
2 5 21 25 26 29 33 37 42 44 45 49 51 54 55 59 60 74 75 79 82 93 94 101 109 111 113 119 123 129 136 142 143 144 145 153 158 159 161 163 165 167 184 187 190 194 198 199 204 211 

2 5 21 25 26 29 33 37 42 44 45 49 51 54 55 59 74 75 79 82 93 94 101 109 111 113 123 129 136 143 144 145 153 158 159 161 163 165 167 184 185 190 194 204 

4 24 27 48 58 71 76 110 139 147 156 171 183 191 200 206 207 210 
2 5 21 25 26 29 33 37 42 44 45 49 50 51 54 55 59 60 74 75 79 82 93 94 101 109 111 113 119 120 123 129 136 140 142 143 144 145 153 158 159 161 163 165 167 179 184 185 187 194 198 199 204 208 211 
4 24 27 48 58 71 76 110 139 147 156 171 183 189 200 206 207 210 
19 90 146 
1 3 7 9 15 20 30 36 41 46 70 100 103 115 125 137 151 152 168 175 180 182 195 201 203 212 213 
2 5 21 25 26 29 37 42 44 45 49 51 54 55 59 60 74 75 79 82 93 94 101 109 123 129 136 145 153 158 159 161 163 165 167 184 185 187 190 204 208 211 
1 3 7 9 15 20 30 36 41 46 70 100 103 115 125 137 151 152 168 175 180 182 193 201 212 213 


2 5 21 26 29 33 37 45 49 51 54 55 59 74 79 93 94 101 109 111 119 123 129 142 143 144 145 153 159 161 163 165 184 185 190 204 
2 5 21 25 26 29 37 42 44 45 49 51 54 55 59 60 74 75 79 82 93 94 101 109 113 119 123 129 136 142 143 145 153 158 159 161 163 165 167 179 184 185 190 204 
4 24 27 48 58 71 76 110 139 147 156 171 183 189 191 206 207 210 
1 3 7 9 15 20 36 46 70 100 103 115 125 137 151 152 168 175 180 182 193 195 212 213 

41 115 168 193 212 
2 5 21 25 26 29 33 37 42 44 45 49 51 54 55 59 60 74 75 79 82 93 94 101 109 111 113 119 123 129 136 142 143 144 145 153 158 159 161 163 165 167 179 184 185 187 190 194 198 199 208 211 

4 24 27 48 58 71 76 110 139 147 156 171 183 189 191 200 207 210 
4 24 27 48 58 71 76 110 139 147 156 171 183 189 191 200 206 210 
29 49 50 51 59 74 94 120 145 190 194 204 

4 24 27 48 58 71 76 110 139 147 156 171 183 189 191 200 206 207 
2 5 26 29 37 42 49 51 55 59 60 74 75 82 94 109 123 129 145 153 159 161 163 165 185 190 194 204 
1 3 7 9 15 20 30 36 41 46 70 100 103 115 125 137 151 152 168 175 180 193 195 201 203 213 
3 7 9 15 20 30 36 41 46 70 100 103 115 125 137 151 152 168 175 180 193 195 201 212 
