instances/exact/exact119.gr
p cep 213 1826
1 7
1 15
1 20
1 100
1 115
1 125
1 137
1 151
1 168
1 180
1 193
1 195
1 201
1 212
2 5
2 21
2 25
2 26
2 29
2 37
2 42
2 44
2 45
2 49
2 51
2 54
2 55
2 59
2 60
2 74
2 75
2 79
2 82
2 93
2 94
2 101
2 109
2 113
2 119
2 123
2 129
2 136
2 142
2 143
2 145
2 153
2 158
2 159
2 161
2 163
2 165
2 167
2 179
2 184
2 185
2 187
2 190
2 194
2 198
2 199
2 204
2 211
3 7
3 9
3 15
3 20
3 30
3 36
3 46
3 70
3 100
3 103
3 115
3 125
3 137
3 151
3 152
3 168
3 175
3 180
3 193
3 195
3 201
3 212
3 213
4 24
4 27
4 48
4 58
4 71
4 76
4 110
4 139
4 147
4 156
4 171
4 183
4 189
4 191
4 200
4 206
4 207
4 210
5 21
5 25
5 26
5 29
5 37
5 42
5 44
5 45
5 49
5 51
5 54
5 55
5 59
5 60
5 74
5 75
5 79
5 82
5 93
5 94
5 101
5 109
5 113
5 119
5 123
5 129
5 136
5 142
5 143
5 145
5 153
5 158
5 159
5 161
5 163
5 165
5 167
5 179
5 184
5 185
5 187
5 190
5 194
5 198
5 199
5 204
5 211
7 9
7 15
7 20
7 30
7 36
7 41
7 46
7 70
7 100
7 103
7 115
7 125
7 137
7 151
7 152
7 168
7 175
7 180
7 182
7 193
7 195
7 201
7 212
7 213
8 12
8 149
9 15
9 20
9 36
9 46
9 70
9 100
9 103
9 115
9 125
9 137
9 152
9 168
9 175
9 180
9 182
9 193
9 195
9 201
9 212
9 213
10 160
12 149
15 20
15 30
15 36
15 41
15 46
15 70
15 100
15 103
15 115
15 125
15 137
15 151
15 152
15 168
15 175
15 180
15 182
15 193
15 195
15 201
15 212
15 213
16 157
17 68
17 95
17 154
18 92
19 90
19 192
20 30
20 36
20 41
20 46
20 70
20 100
20 103
20 115
20 125
20 137
20 151
20 152
20 168
20 175
20 180
20 193
20 195
20 201
20 212
20 213
21 25
21 26
21 29
21 33
21 37
21 42
21 44
21 45
21 49
21 50
21 51
21 54
21 55
21 59
21 60
21 74
21 75
21 79
21 82
21 93
21 94
21 101
21 109
21 111
21 113
21 119
21 123
21 129
21 136
21 142
21 143
21 144
21 145
21 153
21 158
21 159
21 161
21 163
21 165
21 167
21 179
21 184
21 185
21 187
21 190
21 194
21 198
21 199
21 204
22 178
23 77
23 91
23 135
24 27
24 48
24 58
24 71
24 76
24 110
24 139
24 147
24 156
24 171
24 183
24 189
24 191
24 200
24 206
24 207
24 210
25 26
25 29
25 33
25 37
25 42
25 44
25 45
25 49
25 51
25 54
25 55
25 59
25 60
25 74
25 75
25 79
25 82
25 93
25 94
25 101
25 109
25 111
25 113
25 119
25 123
25 129
25 136
25 142
25 143
25 144
25 145
25 153
25 158
25 159
25 161
25 163
25 165
25 167
25 179
25 184
25 185
25 187
25 190
25 194
25 199
25 204
26 29
26 33
26 37
26 42
26 44
26 45
26 49
26 50
26 51
26 54
26 55
26 59
26 60
26 74
26 75
26 79
26 82
26 93
26 94
26 101
26 109
26 111
26 113
26 119
26 123
26 129
26 136
26 142
26 143
26 144
26 145
26 153
26 158
26 159
26 161
26 163
26 165
26 167
26 179
26 184
26 185
26 187
26 190
26 194
26 198
26 199
26 204
26 211
27 48
27 58
27 71
27 76
27 110
27 139
27 147
27 156
27 171
27 183
27 189
27 191
27 200
27 206
27 207
27 210
29 33
29 37
29 42
29 44
29 45
29 49
29 50
29 51
29 54
29 55
29 59
29 60
29 74
29 75
29 79
29 82
29 93
29 94
29 101
29 109
29 111
29 113
29 119
29 120
29 123
29 129
29 136
29 140
29 142
29 143
29 144
29 145
29 153
29 158
29 159
29 161
29 163
29 165
29 167
29 179
29 184
29 185
29 187
29 190
29 194
29 198
29 199
29 204
29 208
29 211
30 36
30 41
30 46
30 70
30 100
30 115
30 125
30 137
30 151
30 152
30 168
30 175
30 180
30 193
30 195
30 212
30 213
31 34
31 64
31 89
31 174
32 87
32 88
32 164
33 37
33 44
33 45
33 49
33 51
33 54
33 59
33 74
33 79
33 93
33 94
33 101
33 109
33 111
33 113
33 123
33 129
33 142
33 144
33 145
33 153
33 158
33 159
33 161
33 163
33 165
33 184
33 185
33 187
33 190
33 198
33 204
34 64
34 89
34 174
35 169
36 41
36 46
36 70
36 100
36 103
36 115
36 125
36 137
36 151
36 152
36 168
36 175
36 180
36 193
36 195
36 201
36 212
36 213
37 42
37 44
37 45
37 49
37 51
37 54
37 55
37 59
37 60
37 74
37 75
37 79
37 82
37 93
37 94
37 101
37 109
37 111
37 113
37 119
37 123
37 129
37 136
37 142
37 143
37 144
37 145
37 153
37 158
37 159
37 161
37 163
37 165
37 167
37 179
37 184
37 185
37 187
37 190
37 194
37 198
37 199
37 204
37 211
41 100
41 103
41 115
41 125
41 137
41 151
41 152
41 170
41 175
41 180
41 193
41 195
41 203
41 212
41 213
42 44
42 45
42 49
42 50
42 51
42 54
42 55
42 59
42 60
42 74
42 75
42 79
42 82
42 93
42 94
42 101
42 109
42 113
42 119
42 123
42 129
42 136
42 142
42 143
42 145
42 153
42 158
42 159
42 161
42 163
42 165
42 167
42 179
42 184
42 185
42 187
42 190
42 194
42 199
42 204
42 211
43 102
44 45
44 49
44 51
44 54
44 55
44 59
44 60
44 74
44 75
44 79
44 82
44 93
44 94
44 101
44 109
44 111
44 113
44 119
44 123
44 129
44 136
44 142
44 143
44 144
44 145
44 153
44 158
44 159
44 161
44 163
44 165
44 167
44 179
44 184
44 185
44 187
44 190
44 194
44 199
44 204
45 49
45 51
45 54
45 55
45 59
45 60
45 74
45 79
45 82
45 93
45 94
45 101
45 109
45 111
45 113
45 119
45 123
45 129
45 136
45 142
45 143
45 144
45 145
45 153
45 158
45 159
45 161
45 163
45 165
45 167
45 179
45 184
45 185
45 187
45 190
45 194
45 198
45 199
45 204
46 70
46 100
46 103
46 115
46 125
46 137
46 151
46 152
46 168
46 175
46 180
46 193
46 195
46 201
46 212
46 213
48 58
48 71
48 76
48 110
48 139
48 147
48 156
48 171
48 183
48 189
48 191
48 200
48 206
48 207
48 210
49 50
49 51
49 54
49 55
49 59
49 60
49 74
49 75
49 79
49 82
49 93
49 94
49 101
49 109
49 111
49 113
49 119
49 120
49 123
49 129
49 136
49 142
49 143
49 144
49 145
49 153
49 158
49 159
49 161
49 163
49 165
49 167
49 179
49 184
49 185
49 187
49 190
49 194
49 198
49 199
49 204
49 208
49 211
50 51
50 59
50 74
50 82
50 94
50 109
50 120
50 123
50 129
50 145
50 153
50 159
50 161
50 163
50 165
50 190
50 208
51 54
51 55
51 59
51 60
51 74
51 75
51 79
51 82
51 93
51 94
51 101
51 109
51 111
51 113
51 119
51 120
51 123
51 129
51 136
51 140
51 142
51 143
51 144
51 145
51 153
51 158
51 159
51 161
51 163
51 165
51 167
51 179
51 184
51 185
51 187
51 190
51 194
51 198
51 199
51 204
51 208
51 211
52 65
52 78
52 112
54 55
54 59
54 60
54 74
54 75
54 79
54 82
54 93
54 94
54 101
54 109
54 111
54 113
54 119
54 123
54 129
54 136
54 142
54 143
54 144
54 145
54 153
54 158
54 159
54 161
54 163
54 165
54 167
54 179
54 184
54 185
54 187
54 190
54 194
54 198
54 199
54 204
55 59
55 60
55 74
55 75
55 79
55 82
55 93
55 94
55 101
55 109
55 111
55 113
55 119
55 123
55 129
55 136
55 142
55 143
55 144
55 145
55 153
55 158
55 159
55 161
55 163
55 165
55 167
55 179
55 184
55 185
55 187
55 190
55 194
55 198
55 199
55 204
55 211
56 69
58 71
58 76
58 110
58 139
58 147
58 156
58 171
58 183
58 189
58 191
58 200
58 206
58 207
58 210
59 60
59 74
59 75
59 79
59 82
59 93
59 94
59 101
59 109
59 111
59 113
59 119
59 120
59 123
59 129
59 136
59 142
59 143
59 144
59 145
59 153
59 158
59 159
59 161
59 163
59 165
59 167
59 179
59 184
59 185
59 187
59 190
59 194
59 198
59 199
59 204
59 208
59 211
60 74
60 75
60 79
60 82
60 93
60 94
60 101
60 109
60 119
60 123
60 129
60 136
60 142
60 143
60 145
60 153
60 158
60 159
60 161
60 163
60 165
60 167
60 184
60 185
60 190
60 194
60 199
60 204
60 211
64 89
64 174
65 78
65 80
65 112
68 95
68 154
70 100
70 103
70 115
70 125
70 137
70 151
70 152
70 168
70 175
70 180
70 193
70 195
70 201
70 212
70 213
71 76
71 110
71 139
71 147
71 156
71 171
71 183
71 189
71 191
71 200
71 206
71 207
71 210
72 122
74 75
74 79
74 82
74 93
74 94
74 101
74 109
74 111
74 113
74 119
74 123
74 129
74 136
74 142
74 143
74 144
74 145
74 153
74 158
74 159
74 161
74 163
74 165
74 167
74 179
74 184
74 185
74 187
74 190
74 194
74 198
74 199
74 204
74 208
74 211
75 79
75 82
75 93
75 94
75 101
75 109
75 113
75 119
75 123
75 129
75 136
75 142
75 143
75 145
75 153
75 158
75 159
75 161
75 163
75 165
75 167
75 179
75 184
75 185
75 187
75 190
75 194
75 199
75 204
75 211
76 110
76 139
76 147
76 156
76 171
76 183
76 189
76 191
76 200
76 206
76 207
76 210
78 80
78 112
79 82
79 93
79 94
79 101
79 109
79 111
79 113
79 119
79 123
79 129
79 136
79 142
79 143
79 144
79 145
79 153
79 158
79 159
79 161
79 163
79 165
79 167
79 179
79 184
79 185
79 187
79 190
79 194
79 198
79 199
79 204
80 112
82 93
82 94
82 101
82 109
82 113
82 119
82 123
82 129
82 136
82 142
82 143
82 145
82 153
82 158
82 159
82 161
82 163
82 165
82 167
82 179
82 184
82 185
82 187
82 190
82 194
82 199
82 204
82 211
87 88
87 164
89 174
90 192
91 135
93 94
93 101
93 109
93 111
93 113
93 119
93 123
93 129
93 136
93 142
93 143
93 144
93 145
93 153
93 158
93 159
93 161
93 163
93 165
93 167
93 179
93 184
93 185
93 187
93 190
93 194
93 198
93 199
93 204
94 101
94 109
94 111
94 113
94 119
94 120
94 123
94 129
94 136
94 140
94 142
94 143
94 144
94 145
94 153
94 158
94 159
94 161
94 163
94 165
94 167
94 179
94 184
94 185
94 187
94 190
94 194
94 198
94 199
94 204
94 208
94 211
95 154
99 138
100 103
100 115
100 125
100 137
100 151
100 152
100 168
100 175
100 180
100 182
100 193
100 195
100 201
100 212
100 213
101 109
101 111
101 113
101 119
101 123
101 129
101 136
101 142
101 143
101 144
101 145
101 153
101 158
101 159
101 161
101 163
101 165
101 167
101 184
101 185
101 187
101 190
101 194
101 198
101 199
101 204
103 115
103 125
103 137
103 151
103 152
103 168
103 175
103 180
103 182
103 193
103 195
103 201
103 212
103 213
106 114
109 111
109 113
109 119
109 123
109 129
109 136
109 142
109 143
109 144
109 145
109 153
109 158
109 159
109 161
109 163
109 165
109 167
109 179
109 184
109 185
109 187
109 190
109 194
109 198
109 199
109 204
109 211
110 139
110 147
110 156
110 171
110 183
110 189
110 191
110 200
110 206
110 207
110 210
111 113
111 123
111 129
111 144
111 145
111 153
111 158
111 159
111 161
111 163
111 165
111 184
111 185
111 187
111 190
111 198
111 204
113 119
113 123
113 129
113 136
113 142
113 143
113 144
113 145
113 153
113 158
113 159
113 161
113 163
113 165
113 184
113 185
113 187
113 190
113 199
113 204
115 125
115 137
115 151
115 152
115 168
115 170
115 175
115 180
115 182
115 193
115 195
115 201
115 203
115 212
115 213
118 177
119 123
119 129
119 136
119 142
119 143
119 145
119 153
119 158
119 159
119 161
119 163
119 165
119 167
119 179
119 184
119 185
119 190
119 198
119 199
119 204
120 145
120 190
120 208
123 129
123 136
123 142
123 143
123 144
123 145
123 153
123 158
123 159
123 161
123 163
123 165
123 167
123 179
123 184
123 185
123 187
123 190
123 194
123 198
123 199
123 204
123 211
124 148
125 137
125 151
125 152
125 168
125 175
125 180
125 182
125 193
125 195
125 201
125 212
125 213
129 136
129 142
129 143
129 144
129 145
129 153
129 158
129 159
129 161
129 163
129 165
129 167
129 179
129 184
129 185
129 187
129 190
129 194
129 198
129 199
129 204
129 211
136 142
136 143
136 145
136 153
136 158
136 159
136 161
136 163
136 165
136 167
136 179
136 184
136 185
136 187
136 190
136 194
136 199
136 204
137 151
137 152
137 168
137 175
137 180
137 182
137 193
137 195
137 201
137 212
137 213
139 147
139 156
139 171
139 183
139 189
139 191
139 200
139 206
139 207
139 210
140 145
140 190
142 143
142 145
142 153
142 158
142 159
142 161
142 163
142 165
142 167
142 179
142 184
142 185
142 190
142 198
142 199
142 204
143 145
143 153
143 158
143 159
143 161
143 163
143 165
143 167
143 179
143 184
143 185
143 187
143 190
143 198
143 199
143 204
144 145
144 153
144 158
144 159
144 161
144 163
144 165
144 184
144 185
144 187
144 190
144 198
144 204
145 153
145 158
145 159
145 161
145 163
145 165
145 167
145 179
145 184
145 185
145 187
145 190
145 194
145 198
145 199
145 204
145 208
145 211
146 192
147 156
147 171
147 183
147 189
147 191
147 200
147 206
147 207
147 210
151 152
151 168
151 175
151 180
151 193
151 195
151 201
151 212
151 213
152 168
152 175
152 180
152 182
152 193
152 195
152 201
152 212
152 213
153 158
153 159
153 161
153 163
153 165
153 167
153 179
153 184
153 185
153 187
153 190
153 194
153 198
153 199
153 204
153 211
156 171
156 183
156 189
156 191
156 200
156 206
156 207
156 210
158 159
158 161
158 163
158 165
158 167
158 179
158 184
158 185
158 187
158 190
158 194
158 199
158 204
159 161
159 163
159 165
159 167
159 179
159 184
159 185
159 187
159 190
159 194
159 198
159 199
159 204
159 211
160 172
161 163
161 165
161 167
161 179
161 184
161 185
161 187
161 190
161 194
161 198
161 199
161 204
161 211
163 165
163 167
163 179
163 184
163 185
163 187
163 190
163 194
163 198
163 199
163 204
163 211
165 167
165 179
165 184
165 185
165 187
165 190
165 194
165 198
165 199
165 204
165 211
167 179
167 184
167 185
167 187
167 190
167 194
167 199
167 204
168 175
168 180
168 182
168 193
168 195
168 201
168 203
168 212
168 213
170 175
171 183
171 189
171 191
171 200
171 206
171 207
171 210
175 180
175 182
175 193
175 195
175 201
175 212
175 213
179 184
179 190
179 199
179 204
180 182
180 193
180 195
180 201
180 212
180 213
182 193
182 195
182 201
183 189
183 191
183 200
183 206
183 207
183 210
184 185
184 187
184 190
184 194
184 198
184 199
184 204
185 187
185 190
185 194
185 198
185 199
185 204
185 211
187 190
187 194
187 204
189 191
189 200
189 206
189 207
189 210
190 194
190 198
190 199
190 204
190 208
190 211
191 200
191 206
191 207
191 210
193 195
193 201
193 203
193 212
193 213
194 204
194 208
194 211
195 201
195 212
195 213
198 204
199 204
200 206
200 207
200 210
201 212
201 213
203 212
204 208
204 211
206 207
206 210
207 210
212 213
